50 8
232 904
254 928
960 539
399 690
335 861
386 691
227 642
424 667
678 721
497 198
835 164
244 686
361 352
206 760
744 482
372 588
527 813
377 668
863 589
193 795
708 631
215 721
414 298
575 752
149 848
296 805
314 766
369 793
268 909
396 844
402 567
431 321
217 327
496 121
325 177
294 806
433 752
277 371
197 725
141 910
902 700
554 60
248 324
777 862
583 667
339 884
288 328
277 533
775 273
606 82
